\ENCODING=ISO-8859-1
\Problem name: IP_model_type1

Minimize
 obj: T_1 + T_2 + T_3 + T_4
Subject To
 c1_1_2:   z_1_2 + z_2_1  = 1
 c1_1_3:   z_1_3 + z_3_1  = 1
 c1_1_4:   z_1_4 + z_4_1  = 1
 c1_2_3:   z_2_3 + z_3_2  = 1
 c1_2_4:   z_2_4 + z_4_2  = 1
 c1_3_4:   z_3_4 + z_4_3  = 1
 c2_1_2_3: z_1_2 - z_1_3 + z_2_3 <= 1
 c2_1_2_4: z_1_2 - z_1_4 + z_2_4 <= 1
 c2_1_3_2: - z_1_2 + z_1_3 + z_3_2 <= 1
 c2_1_3_4: z_1_3 - z_1_4 + z_3_4 <= 1
 c2_1_4_2: - z_1_2 + z_1_4 + z_4_2 <= 1
 c2_1_4_3: - z_1_3 + z_1_4 + z_4_3 <= 1
 c2_2_1_3: z_1_3 + z_2_1 - z_2_3 <= 1
 c2_2_1_4: z_1_4 + z_2_1 - z_2_4 <= 1
 c2_2_3_1: - z_2_1 + z_2_3 + z_3_1 <= 1
 c2_2_3_4: z_2_3 - z_2_4 + z_3_4 <= 1
 c2_2_4_1: - z_2_1 + z_2_4 + z_4_1 <= 1
 c2_2_4_3: - z_2_3 + z_2_4 + z_4_3 <= 1
 c2_3_1_2: z_1_2 + z_3_1 - z_3_2 <= 1
 c2_3_1_4: z_1_4 + z_3_1 - z_3_4 <= 1
 c2_3_2_1: z_2_1 - z_3_1 + z_3_2 <= 1
 c2_3_2_4: z_2_4 + z_3_2 - z_3_4 <= 1
 c2_3_4_1: - z_3_1 + z_3_4 + z_4_1 <= 1
 c2_3_4_2: - z_3_2 + z_3_4 + z_4_2 <= 1
 c2_4_1_2: z_1_2 + z_4_1 - z_4_2 <= 1
 c2_4_1_3: z_1_3 + z_4_1 - z_4_3 <= 1
 c2_4_2_1: z_2_1 - z_4_1 + z_4_2 <= 1
 c2_4_2_3: z_2_3 + z_4_2 - z_4_3 <= 1
 c2_4_3_1: z_3_1 - z_4_1 + z_4_3 <= 1
 c2_4_3_2: z_3_2 - z_4_2 + z_4_3 <= 1
 c3_1:     - 6 z_1_1 - 4 z_2_1 - 5 z_3_1 - 8 z_4_1 + T_1 >= -2
 c3_2:     - 6 z_1_2 - 4 z_2_2 - 5 z_3_2 - 8 z_4_2 + T_2 >= 0
 c3_3:     - 6 z_1_3 - 4 z_2_3 - 5 z_3_3 - 8 z_4_3 + T_3 >= -7
 c3_4:     - 6 z_1_4 - 4 z_2_4 - 5 z_3_4 - 8 z_4_4 + T_4 >= -8
Bounds
 0 <= z_1_1 <= 1
 0 <= z_1_2 <= 1
 0 <= z_1_3 <= 1
 0 <= z_1_4 <= 1
 0 <= z_2_1 <= 1
 0 <= z_2_2 <= 1
 0 <= z_2_3 <= 1
 0 <= z_2_4 <= 1
 0 <= z_3_1 <= 1
 0 <= z_3_2 <= 1
 0 <= z_3_3 <= 1
 0 <= z_3_4 <= 1
 0 <= z_4_1 <= 1
 0 <= z_4_2 <= 1
 0 <= z_4_3 <= 1
 0 <= z_4_4 <= 1
Binaries
 z_1_1  z_1_2  z_1_3  z_1_4  z_2_1  z_2_2  z_2_3  z_2_4  z_3_1  z_3_2  z_3_3 
 z_3_4  z_4_1  z_4_2  z_4_3  z_4_4 
End
